20170823 273735.19 222608.25
20170623 273735.19 188468.49
20170623 248215.91 188468.49
20170428 248215.91 188468.49
20160630 222608.64 188468.69
20151231 222608.64 188468.69
20150630 222608.64 188468.69
